
n_res = 6;
rcap = [342, 343, 269, 296, 739, 752];
rtype = [1, 1, 1, 1, 2, 2];
n_tasks = 50;
modes =  [{1, 2, 3}, {4, 5, 6}, {7, 8, 9}, {10, 11, 12}, {13, 14, 15}, {16, 17, 18}, {19, 20, 21}, {22, 23, 24}, {25, 26, 27}, {28, 29, 30}, {31, 32, 33}, {34, 35, 36}, {37, 38, 39}, {40, 41, 42}, {43, 44, 45}, {46, 47, 48}, {49, 50, 51}, {52, 53, 54}, {55, 56, 57}, {58, 59, 60}, {61, 62, 63}, {64, 65, 66}, {67, 68, 69}, {70, 71, 72}, {73, 74, 75}, {76, 77, 78}, {79, 80, 81}, {82, 83, 84}, {85, 86, 87}, {88, 89, 90}, {91, 92, 93}, {94, 95, 96}, {97, 98, 99}, {100, 101, 102}, {103, 104, 105}, {106, 107, 108}, {109, 110, 111}, {112, 113, 114}, {115, 116, 117}, {118, 119, 120}, {121, 122, 123}, {124, 125, 126}, {127, 128, 129}, {130, 131, 132}, {133, 134, 135}, {136, 137, 138}, {139, 140, 141}, {142, 143, 144}, {145, 146, 147}, {148, 149, 150}];
succ =  [{46, 44, 32, 31, 26, 14, 9, 8}, {50, 48, 46, 45, 39, 31, 30, 27, 25, 21, 20, 19, 15, 14}, {42, 41, 31, 30, 27, 22, 18, 16, 13, 12}, {48, 47, 46, 33, 32, 31, 29, 28, 8}, {48, 45, 44, 43, 41, 39, 32, 30, 28, 27, 25, 24, 20}, {46, 45, 41, 39, 27, 25, 24, 20, 16}, {47, 39, 38, 31, 29, 25, 22, 21, 20}, {50, 45, 39, 36, 30, 27, 25, 21, 20}, {49, 48, 43, 41, 40, 38, 29, 27, 18}, {45, 44, 41, 39, 38, 37, 29, 25, 22}, {44, 43, 41, 39, 32, 26, 25, 20}, {49, 48, 45, 43, 39, 38, 37, 25}, {44, 40, 39, 37, 36, 28, 25}, {47, 43, 42, 40, 37, 35, 29}, {49, 43, 36, 35, 34, 28}, {47, 44, 43, 37, 36, 34}, {42, 39, 36, 34, 28}, {39, 37, 36, 35, 34}, {44, 42, 41, 35, 34}, {42, 40, 35, 34}, {41, 40, 35, 34}, {46, 36, 35, 34}, {41, 34, 28}, {38, 37, 35}, {35, 34}, {35, 34}, {37}, {38}, {36}, {40}, {35}, {36}, {34}, {}, {}, {}, {}, {}, {}, {}, {}, {}, {}, {}, {}, {}, {}, {}, {}, {}];
n_opt = 150;
dur = [1, 8, 25, 23, 24, 25, 16, 17, 23, 9, 10, 12, 9, 13, 16, 1, 10, 22, 17, 20, 29, 1, 5, 12, 2, 21, 30, 2, 10, 23, 15, 27, 28, 10, 16, 30, 8, 20, 22, 4, 16, 22, 8, 10, 22, 13, 14, 16, 2, 3, 6, 3, 4, 23, 5, 10, 21, 1, 12, 27, 15, 16, 27, 15, 18, 27, 6, 20, 25, 10, 11, 20, 19, 26, 30, 4, 13, 14, 13, 16, 22, 7, 15, 24, 7, 17, 20, 4, 5, 15, 18, 21, 26, 3, 11, 16, 7, 10, 17, 3, 18, 26, 15, 18, 30, 9, 13, 30, 6, 26, 27, 6, 15, 23, 9, 21, 27, 2, 6, 26, 8, 11, 16, 1, 20, 21, 13, 25, 26, 14, 22, 24, 1, 20, 28, 22, 23, 30, 3, 9, 12, 3, 13, 15, 14, 17, 25, 1, 8, 19];
rreq = [|3, 3, 1, 2, 2, 2, 2, 2, 2, 5, 4, 4, 4, 3, 1, 2, 1, 1, 4, 4, 4, 4, 2, 2, 2, 1, 1, 3, 1, 1, 2, 2, 2, 3, 2, 2, 4, 4, 4, 5, 3, 3, 3, 3, 2, 3, 2, 2, 2, 1, 1, 5, 4, 2, 3, 2, 1, 2, 2, 2, 4, 4, 4, 1, 1, 1, 2, 2, 1, 2, 1, 1, 3, 2, 2, 4, 4, 3, 3, 2, 2, 4, 3, 3, 4, 4, 4, 3, 2, 1, 3, 3, 3, 1, 1, 1, 3, 2, 2, 3, 1, 1, 2, 2, 2, 3, 3, 1, 3, 3, 2, 5, 2, 1, 5, 4, 2, 4, 3, 3, 3, 2, 2, 4, 3, 2, 1, 1, 1, 3, 3, 3, 4, 3, 2, 5, 5, 5, 4, 4, 3, 3, 1, 1, 4, 4, 3, 5, 3, 2
 |4, 3, 3, 3, 2, 2, 3, 3, 2, 1, 1, 1, 4, 2, 2, 3, 2, 1, 2, 2, 1, 3, 3, 2, 1, 1, 1, 2, 2, 2, 5, 5, 5, 5, 3, 3, 2, 2, 2, 5, 4, 3, 5, 5, 5, 1, 1, 1, 5, 4, 3, 4, 2, 1, 2, 2, 2, 4, 4, 4, 5, 4, 4, 2, 2, 2, 4, 2, 2, 3, 2, 1, 4, 4, 4, 2, 1, 1, 3, 3, 3, 3, 1, 1, 4, 3, 2, 1, 1, 1, 3, 2, 2, 3, 3, 3, 4, 4, 3, 2, 1, 1, 5, 2, 2, 3, 3, 2, 2, 1, 1, 3, 2, 2, 2, 1, 1, 4, 3, 3, 4, 4, 4, 4, 4, 4, 2, 1, 1, 5, 5, 5, 4, 3, 3, 1, 1, 1, 3, 3, 2, 5, 4, 4, 2, 2, 2, 4, 4, 4
 |5, 4, 4, 5, 4, 4, 2, 2, 2, 4, 4, 4, 5, 4, 2, 1, 1, 1, 4, 3, 3, 4, 2, 2, 2, 2, 2, 3, 2, 2, 4, 2, 2, 5, 3, 3, 5, 4, 4, 5, 4, 4, 2, 1, 1, 4, 3, 3, 2, 2, 2, 2, 1, 1, 5, 4, 3, 2, 1, 1, 4, 4, 4, 5, 4, 4, 5, 2, 2, 5, 3, 2, 3, 3, 2, 1, 1, 1, 1, 1, 1, 4, 4, 4, 1, 1, 1, 5, 3, 3, 3, 1, 1, 4, 3, 3, 1, 1, 1, 5, 4, 3, 2, 2, 2, 5, 3, 3, 4, 4, 4, 4, 3, 3, 2, 1, 1, 5, 3, 1, 5, 3, 3, 1, 1, 1, 4, 3, 3, 4, 2, 1, 2, 2, 2, 2, 1, 1, 3, 3, 1, 5, 2, 1, 2, 2, 2, 3, 2, 2
 |2, 2, 2, 3, 3, 3, 3, 1, 1, 3, 3, 3, 4, 4, 4, 3, 3, 3, 2, 2, 2, 4, 4, 3, 5, 5, 5, 2, 1, 1, 5, 5, 5, 4, 3, 3, 3, 3, 3, 4, 4, 4, 1, 1, 1, 2, 1, 1, 4, 4, 4, 1, 1, 1, 1, 1, 1, 4, 3, 3, 4, 4, 2, 5, 5, 5, 2, 2, 2, 4, 4, 4, 4, 4, 4, 4, 3, 3, 3, 3, 3, 3, 3, 3, 3, 2, 2, 3, 1, 1, 4, 4, 3, 2, 1, 1, 1, 1, 1, 2, 2, 2, 1, 1, 1, 5, 3, 1, 4, 3, 2, 4, 2, 2, 3, 2, 2, 2, 2, 2, 4, 2, 2, 3, 3, 3, 1, 1, 1, 1, 1, 1, 5, 4, 3, 4, 4, 4, 4, 3, 3, 3, 3, 2, 5, 5, 5, 3, 3, 2
 |16, 14, 12, 16, 14, 14, 24, 16, 6, 10, 9, 8, 20, 8, 6, 29, 28, 28, 22, 20, 19, 14, 8, 2, 22, 21, 8, 16, 14, 11, 17, 15, 10, 23, 13, 10, 21, 16, 16, 19, 19, 19, 14, 12, 10, 26, 25, 24, 24, 21, 20, 3, 3, 1, 2, 2, 2, 12, 10, 5, 13, 9, 8, 25, 21, 21, 19, 18, 15, 25, 24, 24, 9, 7, 6, 10, 8, 5, 16, 13, 12, 22, 17, 5, 22, 13, 7, 26, 25, 24, 21, 14, 12, 7, 3, 2, 10, 8, 1, 25, 20, 17, 12, 12, 12, 28, 23, 20, 8, 6, 6, 10, 10, 2, 10, 10, 7, 14, 12, 9, 21, 19, 17, 22, 21, 9, 24, 23, 18, 26, 16, 3, 22, 18, 13, 17, 13, 11, 20, 18, 17, 13, 13, 11, 26, 22, 18, 26, 23, 16
 |24, 23, 18, 20, 18, 10, 26, 16, 8, 16, 12, 9, 29, 29, 29, 21, 20, 18, 19, 10, 5, 9, 5, 2, 11, 9, 7, 29, 29, 29, 20, 8, 5, 14, 8, 4, 15, 14, 8, 12, 7, 5, 21, 17, 15, 19, 13, 6, 11, 11, 9, 24, 23, 22, 18, 13, 12, 17, 13, 13, 13, 9, 4, 22, 19, 17, 12, 12, 12, 20, 19, 18, 9, 9, 8, 26, 22, 19, 16, 16, 12, 24, 19, 16, 18, 17, 17, 25, 18, 13, 13, 10, 9, 27, 23, 16, 20, 10, 3, 10, 6, 3, 14, 10, 9, 27, 19, 16, 20, 14, 2, 29, 22, 10, 17, 12, 9, 5, 3, 3, 23, 21, 19, 14, 12, 8, 13, 10, 6, 22, 22, 17, 11, 10, 8, 21, 19, 18, 26, 21, 21, 14, 12, 7, 26, 26, 24, 8, 7, 5|];